% demand
num_movements = 30;
loading_factor = [1750, 1950, 1300, 900, 1350, 2000, 1950, 1150, 1450, 1900, 1650, 1250, 1150, 1400, 1100, 1350, 1350, 1050, 1700, 800, 1700, 1250, 950, 1400, 1700, 1300, 850, 1750, 1600, 1550];
pickup_time = [0, 0, 0, 1, 1, 1, 1, 2, 2, 3, 4, 4, 5, 6, 7, 7, 7, 7, 8, 9, 9, 10, 11, 11, 11, 11, 12, 12, 12, 12];
delivery_time = [1, 1, 1, 8, 6, 4, 2, 3, 3, 4, 6, 8, 7, 7, 8, 8, 8, 8, 11, 12, 11, 11, 13, 12, 12, 12, 13, 13, 13, 13];

% transporter definition
total_capacity = 7000;
num_decks = 3;
capacity = [3000, 1000, 3000];

% ways out of decks
num_ways_out = 1;
paths_out = array3d(decks, ways_out, decks, [
% ways out of deck d1
2, 3, 0, 

% ways out of deck d2
3, 0, 0, 

% ways out of deck d3
0, 0, 0,	

]);

